
  27    0


   0  14 2 3 4 5 6 7 8 12 13 14 23 24 25 26 
   1   5 22 19 18 17 9 
   3   4 19 18 17 10 
   1   2 17 11 
  10   2 21 16 
   4   2 17 16 
   6   2 16 15 
   8   2 16 15 
   9   1 10 
   4   1 15 
   9   1 18 
   5   1 20 
   4   1 17 
   4   1 16 
   2   1 27
   5   1 27
   9   1 27
   7   1 27
   1   1 27
   3   1 27
   7   1 27
   8   1 27
   7   1 27
   6   1 27
  10   1 27
   1   1 27
   0   0 
